experiments/sat_smt/run/sat-r+/results/kevin.res
solved=true
solvingTime=62.532989501953125
nActions=11