experiments/sat_smt/run/sat-r+/results/kevin.out
Timesteps: 1
s UNSATISFIABLE
real 0.17
user 0.02
sys 0.00
Timesteps: 2
s UNSATISFIABLE
real 0.16
user 0.05
sys 0.00
Timesteps: 3
s UNSATISFIABLE
real 0.28
user 0.09
sys 0.01
Timesteps: 4
s UNSATISFIABLE
real 0.41
user 0.30
sys 0.01
Timesteps: 5
s UNSATISFIABLE
real 0.71
user 0.51
sys 0.02
Timesteps: 6
s UNSATISFIABLE
real 1.38
user 1.21
sys 0.01
Timesteps: 7
s UNSATISFIABLE
real 4.15
user 3.93
sys 0.02
Timesteps: 8
s UNSATISFIABLE
real 4.75
user 4.51
sys 0.02
Timesteps: 9
s UNSATISFIABLE
real 6.33
user 6.00
sys 0.03
Timesteps: 10
s UNSATISFIABLE
real 20.28
user 19.53
sys 0.05
Timesteps: 11
s SATISFIABLE
real 24.51
user 23.64
sys 0.06
